12
0 39 31 57 65 21 83 53 55 42 14 23
39 0 28 71 14 54 78 75 22 67 58 80
31 28 0 70 24 37 55 8 30 8 40 72
57 71 70 0 52 55 58 28 66 41 25 39
65 14 24 52 0 45 84 44 26 46 61 32
21 54 37 55 45 0 54 33 52 40 60 56
83 78 55 58 84 54 0 48 84 61 64 49
53 75 8 28 44 33 48 0 51 9 44 36
55 22 30 66 26 52 84 51 0 41 46 51
42 67 8 41 46 40 61 9 41 0 77 93
14 58 40 25 61 60 64 44 46 77 0 65
23 80 72 39 32 56 49 36 51 93 65 0
